CutGeneration/codt02_symbreaking.mps
NAME 
ROWS
 N  OBJ
 G  R0      
 G  R1      
 G  R2      
 G  R3      
 G  R4      
 G  R5      
 G  R6      
 G  R7      
 G  R8      
 G  R9      
 G  R10     
 G  R11     
 G  R12     
 G  R13     
 G  R14     
 G  R15     
 G  R16     
COLUMNS
    X0        OBJ       1
    X0        R0        1
    X0        R1        1
    X0        R2        1
    X0        R3        1
    X0        R6        1
    X0        R9        1
    X1        OBJ       1
    X1        R0        1
    X1        R1        1
    X1        R2        1
    X1        R4        1
    X1        R7        1
    X1        R9        -1
    X1        R10       1
    X2        OBJ       1
    X2        R0        1
    X2        R1        1
    X2        R2        1
    X2        R5        1
    X2        R8        1
    X2        R10       -1
    X2        R11       1
    X3        OBJ       1
    X3        R0        1
    X3        R3        1
    X3        R4        1
    X3        R5        1
    X3        R6        1
    X3        R11       -1
    X3        R12       1
    X4        OBJ       1
    X4        R1        1
    X4        R3        1
    X4        R4        1
    X4        R5        1
    X4        R7        1
    X4        R12       -1
    X4        R13       1
    X5        OBJ       1
    X5        R2        1
    X5        R3        1
    X5        R4        1
    X5        R5        1
    X5        R8        1
    X5        R13       -1
    X5        R14       1
    X6        OBJ       1
    X6        R0        1
    X6        R3        1
    X6        R6        1
    X6        R7        1
    X6        R8        1
    X6        R14       -1
    X6        R15       1
    X7        OBJ       1
    X7        R1        1
    X7        R4        1
    X7        R6        1
    X7        R7        1
    X7        R8        1
    X7        R15       -1
    X7        R16       1
    X8        OBJ       1
    X8        R2        1
    X8        R5        1
    X8        R6        1
    X8        R7        1
    X8        R8        1
    X8        R16       -1
RHS
    RHS1      R0        1
    RHS1      R1        1
    RHS1      R2        1
    RHS1      R3        1
    RHS1      R4        1
    RHS1      R5        1
    RHS1      R6        1
    RHS1      R7        1
    RHS1      R8        1
BOUNDS
 UP BND1      X0        1
 UP BND1      X1        1
 UP BND1      X2        1
 UP BND1      X3        1
 UP BND1      X4        1
 UP BND1      X5        1
 UP BND1      X6        1
 UP BND1      X7        1
 UP BND1      X8        1
ENDATA
